     Program PHONON v.7.0 starts on 25Jun2022 at 13:35:59

     K-points division:     npool     =      14
     R & G space division:  proc/nbgrp/npool/nimage =       2

     Waiting for input...
     Reading input from standard input

     Reading xml data from directory:

     ./graphene.save/
     file C.pbe-n-kjpaw_psl.1.0.0.UPF: wavefunction(s)  2S 2P renormalized

     IMPORTANT: XC functional enforced from input :
     Exchange-correlation= PBE
                           (   1   4   3   4   0   0   0)
     Any further DFT definition will be discarded
     Please, verify this is what you really want

     Using Slab Decomposition

     negative rho (up, down):  1.103E-04 0.000E+00
     Reading collected, re-writing distributed wavefunctions

     Dynamical matrices for (12,12, 1)  uniform grid of q-points
     (  19 q-points):
       N         xq(1)         xq(2)         xq(3)
       1   0.000000000   0.000000000   0.000000000
       2   0.000000000   0.096225045   0.000000000
       3   0.000000000   0.192450090   0.000000000
       4   0.000000000   0.288675135   0.000000000
       5   0.000000000   0.384900179   0.000000000
       6   0.000000000   0.481125224   0.000000000
       7   0.000000000  -0.577350269   0.000000000
       8   0.083333333   0.144337567   0.000000000
       9   0.083333333   0.240562612   0.000000000
      10   0.083333333   0.336787657   0.000000000
      11   0.083333333   0.433012702   0.000000000
      12   0.083333333   0.529237747   0.000000000
      13   0.166666667   0.288675135   0.000000000
      14   0.166666667   0.384900179   0.000000000
      15   0.166666667   0.481125224   0.000000000
      16   0.166666667   0.577350269   0.000000000
      17   0.250000000   0.433012702   0.000000000
      18   0.250000000   0.529237747   0.000000000
      19   0.333333333   0.577350269   0.000000000

     Saving dvscf to file. Distribute only q points, not irreducible represetations.

     Calculation of q =    0.0000000   0.0000000   0.0000000

     Phonons

     bravais-lattice index     =            4
     lattice parameter (alat)  =       4.6623  a.u.
     unit-cell volume          =     711.4836 (a.u.)^3
     number of atoms/cell      =            2
     number of atomic types    =            1
     kinetic-energy cut-off    =      80.0000  Ry
     charge density cut-off    =     480.0000  Ry
     convergence threshold     =      1.0E-16
     beta                      =       0.7000
     number of iterations used =            4
     Exchange-correlation= PBE
                           (   1   4   3   4   0   0   0)

     celldm(1)=    4.66233  celldm(2)=    0.00000  celldm(3)=    8.10636
     celldm(4)=    0.00000  celldm(5)=    0.00000  celldm(6)=    0.00000

     crystal axes: (cart. coord. in units of alat)
               a(1) = (  1.0000  0.0000  0.0000 )
               a(2) = ( -0.5000  0.8660  0.0000 )
               a(3) = (  0.0000  0.0000  8.1064 )

     reciprocal axes: (cart. coord. in units 2 pi/alat)
               b(1) = (  1.0000  0.5774  0.0000 )
               b(2) = (  0.0000  1.1547  0.0000 )
               b(3) = (  0.0000  0.0000  0.1234 )

     Atoms inside the unit cell:

     Cartesian axes

     site n.  atom      mass           positions (alat units)
        1     C   12.0107   tau(    1) = (   -0.00000    0.57735    4.05318  )
        2     C   12.0107   tau(    2) = (    0.50000    0.28868    4.05318  )

     Computing dynamical matrix for
                    q = (   0.0000000   0.0000000   0.0000000 )

     25 Sym.Ops. (with q -> -q+G )

     G cutoff =  264.2938  (  63163 G-vectors)     FFT grid: ( 36, 36,270)
     G cutoff =  176.1958  (  34335 G-vectors)  smooth grid: ( 27, 27,216)

     number of k points=   127  Methfessel-Paxton smearing, width (Ry)=  0.0100

     PseudoPot. # 1 for C  read from file:
     ./pseudo/C.pbe-n-kjpaw_psl.1.0.0.UPF
     MD5 check sum: 6fec8efd722f5d988670a8dc528584a2
     Pseudo is Projector augmented-wave + core cor, Zval =  4.0
     Generated using "atomic" code by A. Dal Corso  v.5.1.2
     Shape of augmentation charge: PSQ
     Using radial grid of 1073 points,  4 beta functions with:
                l(1) =   0
                l(2) =   0
                l(3) =   1
                l(4) =   1
     Q(r) pseudized with 0 coefficients

     Mode symmetry, D_6h(6/mmm) point group:

     Atomic displacements:
     There are    4 irreducible representations

     Representation     1      1 modes -  To be done

[...]

     Alpha used in Ewald sum =   2.8000

     negative rho (up, down):  1.103E-04 0.000E+00

     Representation #   1 mode #   1

     Self-consistent Calculation

     Pert. #  1: Fermi energy shift (Ry) =    -1.3786E-25     0.0000E+00

      thresh= 1.000E-02 alpha_mix =  0.700 |ddv_scf|^2 =  1.493E-07

[...]

     End of self-consistent calculation

     Convergence has been achieved

     Representation #   2 modes #   2   3

[...]

     Pert. #  1: Fermi energy shift (Ry) =     2.0680E-25     3.0612E-41
     Pert. #  2: Fermi energy shift (Ry) =     0.0000E+00     9.1835E-41

[...]

     Number of q in the star =    1
     List of q in the star:
          1   0.000000000   0.000000000   0.000000000

     Diagonalizing the dynamical matrix

     q = (    0.000000000   0.000000000   0.000000000 )

     freq (    1) =       0.794201 [THz] =      26.491692 [cm-1]
     freq (    2) =       0.794201 [THz] =      26.491692 [cm-1]
     freq (    3) =       1.606888 [THz] =      53.599998 [cm-1]
     freq (    4) =      26.227510 [THz] =     874.855562 [cm-1]
     freq (    5) =      46.185539 [THz] =    1540.583744 [cm-1]
     freq (    6) =      46.185539 [THz] =    1540.583744 [cm-1]

     Mode symmetry, D_6h(6/mmm) point group:

     freq (   1-   2) =         26.5  [cm-1]   --> E_1u            I
     freq (   3-   3) =         53.6  [cm-1]   --> A_2u            I
     freq (   4-   4) =        874.9  [cm-1]   --> B_1g
     freq (   5-   6) =       1540.6  [cm-1]   --> E_2g            R

[...]

     Subspace diagonalization in iterative solution of the eigenvalue problem:
     a serial algorithm will be used

[...]

     Title:
     Phonons

     bravais-lattice index     =            4
     lattice parameter (alat)  =       4.6623  a.u.
     unit-cell volume          =     711.4836 (a.u.)^3
     number of atoms/cell      =            2
     number of atomic types    =            1
     number of electrons       =         8.00
     number of Kohn-Sham states=            8
     kinetic-energy cutoff     =      80.0000  Ry
     charge density cutoff     =     480.0000  Ry
     Exchange-correlation= PBE
                           (   1   4   3   4   0   0   0)

[...]

Write cell and positions for Wanner90.x
begin unit_cell_cart
Bohr
        4.6623268   0.0000000   0.0000000
       -2.3311634   4.0376934   0.0000000
        0.0000000   0.0000000  37.7945225
end unit_cell_cart

begin atoms_cart
Bohr
        C          -0.0000000   2.6917956  18.8972612
        C           2.3311634   1.3458978  18.8972612
end atoms_cart

[...]

     atomic species   valence    mass     pseudopotential
        C              4.00    12.01070     C ( 1.00)

     24 Sym. Ops., with inversion, found

[...]

     site n.     atom                  positions (alat units)
         1           C   tau(   1) = (  -0.0000000   0.5773503   4.0531825  )
         2           C   tau(   2) = (   0.5000000   0.2886751   4.0531825  )

[...]

     Number of k-points >= 100: set verbosity='high' to print them.

     The potential is recalculated from file :
     ./_ph0/graphene.q_2/graphene.save/charge-density

     negative rho (up, down):  1.103E-04 0.000E+00
     Starting wfcs are    8 atomic wfcs
     Checking if some PAW data can be deallocated...

     Band Structure Calculation
     Davidson diagonalization with overlap

     ethr =  1.25E-10,  avg # of iterations = 28.0

     End of band structure calculation

     Number of k-points >= 100: set verbosity='high' to print the bands.

     the Fermi energy is    -2.3538 ev

     Writing config to output data dir ./_ph0/graphene.q_2/graphene.save/

[...]

      4 Sym.Ops. (no q -> -q+G )

[...]

     Mode symmetry, C_2v (mm2)  point group:

[...]

     freq (   1-   1) =         57.0  [cm-1]   --> B_2  D_4  S_4
     freq (   2-   2) =        178.6  [cm-1]   --> B_1  D_3  S_3
     freq (   3-   3) =        280.6  [cm-1]   --> A_1  D_1  S_1
     freq (   4-   4) =        869.7  [cm-1]   --> B_2  D_4  S_4
     freq (   5-   5) =       1542.8  [cm-1]   --> B_1  D_3  S_3
     freq (   6-   6) =       1589.0  [cm-1]   --> A_1  D_1  S_1

[...]

      9 Sym.Ops. (with q -> -q+G )

[...]

     Mode symmetry, D_2h (mmm)  point group:

[...]

     Mode symmetry, D_2h (mmm)  point group:

     freq (   1-   1) =        472.3  [cm-1]   --> B_2g
     freq (   2-   2) =        623.6  [cm-1]   --> B_1g
     freq (   3-   3) =        633.6  [cm-1]   --> B_1u
     freq (   4-   4) =       1329.3  [cm-1]   --> B_3u
     freq (   5-   5) =       1341.3  [cm-1]   --> A_g
     freq (   6-   6) =       1389.3  [cm-1]   --> B_2u

[...]

     Mode symmetry, C_s (m)     point group:

[...]

     freq (   1-   1) =        132.6  [cm-1]   --> A''
     freq (   2-   2) =        452.9  [cm-1]   --> A'
     freq (   3-   3) =        687.5  [cm-1]   --> A'
     freq (   4-   4) =        834.4  [cm-1]   --> A''
     freq (   5-   5) =       1475.1  [cm-1]   --> A'
     freq (   6-   6) =       1590.6  [cm-1]   --> A'

[...]

     freq (   1-   1) =        448.3  [cm-1]   --> A''
     freq (   2-   2) =        647.8  [cm-1]   --> A''
     freq (   3-   3) =        669.0  [cm-1]   --> A'
     freq (   4-   4) =       1251.8  [cm-1]   --> A'
     freq (   5-   5) =       1381.0  [cm-1]   --> A'
     freq (   6-   6) =       1390.5  [cm-1]   --> A'

[...]

     freq (   1-   1) =        300.4  [cm-1]   --> A''
     freq (   2-   2) =        710.1  [cm-1]   --> A'
     freq (   3-   3) =        744.8  [cm-1]   --> A''
     freq (   4-   4) =        994.9  [cm-1]   --> A'
     freq (   5-   5) =       1394.6  [cm-1]   --> A'
     freq (   6-   6) =       1493.9  [cm-1]   --> A'

[...]

     Mode symmetry, C_2v (mm2)  point group:

     freq (   1-   1) =        385.0  [cm-1]   --> B_2  D_4  S_4
     freq (   2-   2) =        678.7  [cm-1]   --> A_2  D_2  S_2
     freq (   3-   3) =        844.2  [cm-1]   --> B_1  D_3  S_3
     freq (   4-   4) =       1080.6  [cm-1]   --> A_1  D_1  S_1
     freq (   5-   5) =       1358.0  [cm-1]   --> A_1  D_1  S_1
     freq (   6-   6) =       1408.4  [cm-1]   --> B_1  D_3  S_3

[...]

     Mode symmetry, C_s (m)     point group:

     freq (   1-   1) =        469.8  [cm-1]   --> A''
     freq (   2-   2) =        602.6  [cm-1]   --> A''
     freq (   3-   3) =        916.8  [cm-1]   --> A'
     freq (   4-   4) =       1179.2  [cm-1]   --> A'
     freq (   5-   5) =       1303.6  [cm-1]   --> A'
     freq (   6-   6) =       1334.4  [cm-1]   --> A'

     Calculation of q =    0.3333333   0.5773503   0.0000000

     Using Slab Decomposition

     Title:
     Phonons

     bravais-lattice index     =            4
     lattice parameter (alat)  =       4.6623  a.u.
     unit-cell volume          =     711.4836 (a.u.)^3
     number of atoms/cell      =            2
     number of atomic types    =            1
     number of electrons       =         8.00
     number of Kohn-Sham states=            8
     kinetic-energy cutoff     =      80.0000  Ry
     charge density cutoff     =     480.0000  Ry
     Exchange-correlation= PBE
                           (   1   4   3   4   0   0   0)

[...]

Write cell and positions for Wanner90.x
begin unit_cell_cart
Bohr
        4.6623268   0.0000000   0.0000000
       -2.3311634   4.0376934   0.0000000
        0.0000000   0.0000000  37.7945225
end unit_cell_cart

begin atoms_cart
Bohr
        C          -0.0000000   2.6917956  18.8972612
        C           2.3311634   1.3458978  18.8972612
end atoms_cart

[...]

     atomic species   valence    mass     pseudopotential
        C              4.00    12.01070     C ( 1.00)

     24 Sym. Ops., with inversion, found

[...]

     site n.     atom                  positions (alat units)
         1           C   tau(   1) = (  -0.0000000   0.5773503   4.0531825  )
         2           C   tau(   2) = (   0.5000000   0.2886751   4.0531825  )

[...]

     Number of k-points >= 100: set verbosity='high' to print them.

     The potential is recalculated from file :
     ./_ph0/graphene.q_19/graphene.save/charge-density

     negative rho (up, down):  1.103E-04 0.000E+00
     Starting wfcs are    8 atomic wfcs
     Checking if some PAW data can be deallocated...

     Band Structure Calculation
     Davidson diagonalization with overlap

     ethr =  1.25E-10,  avg # of iterations = 27.6

     End of band structure calculation

     Number of k-points >= 100: set verbosity='high' to print the bands.

     the Fermi energy is    -2.3538 ev

     Writing config to output data dir ./_ph0/graphene.q_19/graphene.save/

     Phonons

     bravais-lattice index     =            4
     lattice parameter (alat)  =       4.6623  a.u.
     unit-cell volume          =     711.4836 (a.u.)^3
     number of atoms/cell      =            2
     number of atomic types    =            1
     kinetic-energy cut-off    =      80.0000  Ry
     charge density cut-off    =     480.0000  Ry
     convergence threshold     =      1.0E-16
     beta                      =       0.7000
     number of iterations used =            4
     Exchange-correlation= PBE
                           (   1   4   3   4   0   0   0)

     celldm(1)=    4.66233  celldm(2)=    0.00000  celldm(3)=    8.10636
     celldm(4)=    0.00000  celldm(5)=    0.00000  celldm(6)=    0.00000

     crystal axes: (cart. coord. in units of alat)
               a(1) = (  1.0000  0.0000  0.0000 )
               a(2) = ( -0.5000  0.8660  0.0000 )
               a(3) = (  0.0000  0.0000  8.1064 )

     reciprocal axes: (cart. coord. in units 2 pi/alat)
               b(1) = (  1.0000  0.5774  0.0000 )
               b(2) = (  0.0000  1.1547  0.0000 )
               b(3) = (  0.0000  0.0000  0.1234 )

     Atoms inside the unit cell:

     Cartesian axes

     site n.  atom      mass           positions (alat units)
        1     C   12.0107   tau(    1) = (   -0.00000    0.57735    4.05318  )
        2     C   12.0107   tau(    2) = (    0.50000    0.28868    4.05318  )

     Computing dynamical matrix for
                    q = (   0.3333333   0.5773503   0.0000000 )

     12 Sym.Ops. (no q -> -q+G )

     G cutoff =  264.2938  (  63163 G-vectors)     FFT grid: ( 36, 36,270)
     G cutoff =  176.1958  (  34335 G-vectors)  smooth grid: ( 27, 27,216)

     number of k points=   470  Methfessel-Paxton smearing, width (Ry)=  0.0100

     PseudoPot. # 1 for C  read from file:
     ./pseudo/C.pbe-n-kjpaw_psl.1.0.0.UPF
     MD5 check sum: 6fec8efd722f5d988670a8dc528584a2
     Pseudo is Projector augmented-wave + core cor, Zval =  4.0
     Generated using "atomic" code by A. Dal Corso  v.5.1.2
     Shape of augmentation charge: PSQ
     Using radial grid of 1073 points,  4 beta functions with:
                l(1) =   0
                l(2) =   0
                l(3) =   1
                l(4) =   1
     Q(r) pseudized with 0 coefficients

     Mode symmetry, D_3h (-62m) point group:

     Atomic displacements:
     There are    4 irreducible representations

[...]

     Representation     4      2 modes -  To be done

     Alpha used in Ewald sum =   2.8000

     negative rho (up, down):  1.103E-04 0.000E+00

[...]

     Representation #   2 mode #   2

[...]

     Representation #   4 modes #   5   6

     Self-consistent Calculation

[...]

      thresh= 4.040E-08 alpha_mix =  0.700 |ddv_scf|^2 =  6.178E-17

     End of self-consistent calculation

     Convergence has been achieved

     Number of q in the star =    2
     List of q in the star:
          1   0.333333333   0.577350269   0.000000000
          2  -0.333333333   0.577350269   0.000000000

     Diagonalizing the dynamical matrix

     q = (    0.333333333   0.577350269   0.000000000 )

     freq (    1) =      16.025878 [THz] =     534.565759 [cm-1]
     freq (    2) =      16.025878 [THz] =     534.565759 [cm-1]
     freq (    3) =      29.774575 [THz] =     993.172903 [cm-1]
     freq (    4) =      36.416899 [THz] =    1214.736991 [cm-1]
     freq (    5) =      36.416899 [THz] =    1214.736991 [cm-1]
     freq (    6) =      37.691894 [THz] =    1257.266261 [cm-1]

     Mode symmetry, D_3h (-62m) point group:

     freq (   1-   2) =        534.6  [cm-1]   --> E''
     freq (   3-   3) =        993.2  [cm-1]   --> A'_2
     freq (   4-   5) =       1214.7  [cm-1]   --> E'
     freq (   6-   6) =       1257.3  [cm-1]   --> A'_1

     General routines

     Parallel routines

     INITIALIZATION:

     DYNAMICAL MATRIX:

      General routines

   This run was terminated on:  20:11: 8  25Jun2022

   JOB DONE.